40
2 0 3
2 1 7
3 0 4
3 1 4
3 2 4
4 1 3
4 2 7
4 3 5
5 0 6
5 1 3
5 2 4
6 1 6
6 4 3
6 5 3
7 0 4
7 1 2
7 4 1
7 6 1
8 1 6
8 2 3
8 3 2
9 0 7
9 3 3
9 4 7
9 6 4
9 7 7
9 8 2
10 0 5
10 3 5
10 5 6
11 1 3
11 2 6
11 4 7
11 7 2
11 10 4
12 1 5
12 4 1
12 5 7
13 0 2
13 1 1
13 9 6
13 10 6
13 11 7
13 12 5
14 0 1
14 1 7
14 3 3
14 4 7
14 6 4
14 9 3
14 10 1
15 0 7
15 1 4
15 2 4
15 4 6
15 5 6
15 7 5
15 8 1
15 10 1
15 13 4
16 0 5
16 6 3
16 7 3
16 10 6
16 11 7
16 15 3
17 0 3
17 4 6
17 8 7
17 9 6
17 13 4
17 15 6
18 2 1
18 4 7
18 9 2
18 11 6
18 13 4
18 15 2
19 0 4
19 2 1
19 5 2
19 7 3
19 8 7
19 10 6
19 12 5
19 15 5
19 16 6
20 0 7
20 3 1
20 4 1
20 8 2
20 9 7
20 10 3
20 13 5
20 14 3
20 17 3
20 19 5
21 1 3
21 3 4
21 6 5
21 7 3
21 9 4
21 13 2
21 14 6
21 16 4
21 17 4
21 18 6
21 20 3
22 1 1
22 2 4
22 10 7
22 11 6
22 13 3
22 15 5
22 19 6
22 21 2
23 3 7
23 4 3
23 5 6
23 8 5
23 10 5
23 12 7
23 13 7
23 14 3
23 16 5
23 18 6
23 19 1
23 22 1
24 2 2
24 3 7
24 4 5
24 7 1
24 9 1
24 10 2
24 13 5
24 14 3
24 16 4
24 17 1
24 18 6
24 20 5
24 21 4
24 22 4
24 23 4
25 0 7
25 2 4
25 9 5
25 11 1
25 13 7
25 14 7
25 17 3
25 18 7
25 19 6
25 20 1
25 21 4
25 22 1
25 23 1
25 24 7
26 1 3
26 4 2
26 7 1
26 8 4
26 9 5
26 12 5
26 13 7
26 14 5
26 16 4
26 19 5
26 20 6
26 22 5
26 24 3
26 25 4
27 0 5
27 2 1
27 3 6
27 4 1
27 6 1
27 8 3
27 9 5
27 11 6
27 13 4
27 15 7
27 16 6
27 17 6
27 19 3
27 20 4
27 21 2
27 22 5
27 23 6
27 25 6
27 26 5
28 0 5
28 1 6
28 4 7
28 7 5
28 8 7
28 11 5
28 12 6
28 15 2
28 17 5
28 18 1
28 19 2
28 20 2
28 22 6
28 26 3
28 27 2
29 0 6
29 2 4
29 3 5
29 5 1
29 6 5
29 8 6
29 11 6
29 13 1
29 16 3
29 18 2
29 20 2
29 21 7
29 25 7
29 27 4
30 2 7
30 5 2
30 6 5
30 7 3
30 10 6
30 11 6
30 12 7
30 13 4
30 14 2
30 17 5
30 18 5
30 21 1
30 23 1
30 24 1
30 28 3
31 0 4
31 1 4
31 2 7
31 3 7
31 5 3
31 6 7
31 7 7
31 8 2
31 12 2
31 13 5
31 15 2
31 16 1
31 17 3
31 18 7
31 19 6
31 23 2
31 24 4
31 26 1
31 27 7
31 30 2
32 1 3
32 5 3
32 6 1
32 7 2
32 9 1
32 11 1
32 12 7
32 13 3
32 15 3
32 16 6
32 17 1
32 19 2
32 22 5
32 23 6
32 24 2
32 26 6
32 28 1
32 31 3
33 1 2
33 2 5
33 3 4
33 4 7
33 5 4
33 8 6
33 9 2
33 10 3
33 13 4
33 14 2
33 18 4
33 20 1
33 21 5
33 22 6
33 26 2
33 28 4
34 0 3
34 2 2
34 3 3
34 4 2
34 5 1
34 6 6
34 8 5
34 11 3
34 17 2
34 25 4
34 27 3
34 28 2
34 29 3
34 30 7
34 31 1
34 32 2
35 0 1
35 1 7
35 3 2
35 8 7
35 9 5
35 12 7
35 14 4
35 15 4
35 17 2
35 18 5
35 19 2
35 21 1
35 22 1
35 23 6
35 26 5
35 27 6
35 34 5
36 2 2
36 3 4
36 7 4
36 8 5
36 9 3
36 12 6
36 13 3
36 15 6
36 23 3
36 24 2
36 25 3
36 28 1
36 33 5
36 35 1
37 1 1
37 3 5
37 9 7
37 10 6
37 13 4
37 18 7
37 19 1
37 22 7
37 23 4
37 26 3
37 30 4
37 31 4
37 32 5
37 35 2
38 0 2
38 2 3
38 3 5
38 5 2
38 6 6
38 8 3
38 9 7
38 11 6
38 12 6
38 13 6
38 14 6
38 17 5
38 18 1
38 20 5
38 23 4
38 25 7
38 26 4
38 29 6
38 30 2
38 32 6
38 34 4
38 35 2
38 36 7
38 37 3
39 6 6
39 9 6
39 10 4
39 11 4
39 20 5
39 22 5
39 23 3
39 26 5
39 29 3
39 30 3
39 37 6
